
P = 1;

n = 10;

m = 10;

w1 = 1.00;

w2 = 5.00;

L = 3.00;

g = 1.26;

t = 
[[70,64,76,82,76,87,65,96,79,78],
[67,72,88,72,79,69,76,70,82,87],
[66,81,93,72,61,75,79,99,61,84],
[79,71,80,87,85,88,67,90,84,78],
[60,84,82,89,96,61,90,64,72,72],
[92,70,85,85,82,79,60,62,78,93],
[78,90,64,90,69,81,79,76,72,95],
[94,64,79,69,93,76,70,75,80,82],
[79,64,93,65,81,67,84,73,61,94],
[66,79,84,62,62,86,84,81,62,88]];
